x
10
14
10
1
2
1
10
14
1
2
4
3
5
3
4
3
7
6
7
3
5
7
6
7
6
7
3
7
8
9
8
9
8
9
8
7
8
9
8
9
8
9
8
9
8
12
11
12
16
12
16
12
16
12
19
12
11
12
19
18
19
18
19
17
19
16
19
17
19
18
19
18
19
12
16
12
16
12
9
8
9
8
7
6
7
15
13
15
13
15
7
6
7
15
13
15
13
15
13
15
13
15
13
15
13
15
13
15
22
20
23
25
23
25
23
25
23
20
23
25
26
25
26
25
26
25
26
25
26
25
23
20
22
20
22
24
22
24
28
22
20
23
20
22
24
22
20
23
25
23
20
22
20
22
24
22
24
28
27
28
24
22
28
24
28
27
28
27
28
24
28
27
31
36
31
36
31
36
31
36
31
36
31
34
33
34
31
34
31
36
31
34
31
34
33
38
37
38
37
38
33
38
37
38
34
33
34
38
37
38
33
38
33
34
38
35
37
38
35
32
30
29
30
32
30
32
30
29
21
29
21
29
30
29
30
32
29
21
29
21
29
32
29
21
29
30
32
30
29
21
14
1
10
1
14
10
14
1
2
1
2
1
10
14
10
1
2
1
10
14
10
14
